50

100 41 176
97 46 255
96 34 180
92 11 283
89 13 193
88 7 326
88 20 171
87 19 267
83 22 283
75 32 301
75 8 254
72 22 155
71 7 305
70 5 333
69 0 212
66 7 325
63 1 225
62 22 174
62 0 257
61 1 206
60 13 354
58 6 353
50 4 158
47 9 202
46 1 357
40 10 288
40 3 345
37 13 233
36 8 245
32 7 328
31 12 323
30 15 360
28 13 313
27 6 177
27 5 187
26 13 231
24 2 306
18 1 179
16 6 154
14 5 317
13 7 251
12 4 190
10 3 199
10 0 359
10 5 294
8 2 337
7 4 333
5 0 228
4 0 332
2 1 322
